
Gurobi 11.0.3 (linux64) logging started Sat Nov 23 08:10:32 2024

Set parameter LogFile to value "/home/yihong/Coding/OR_SUC/SUC_results_bigM100000_thread4/case24_ieee_rts_theta0.5_epsilon0.05_gurobi_seed610000_num_gen100_N_WDR150_load_scaling_factor1_exact_T24quadra_cost.txt"
Set parameter TimeLimit to value 3600
Gurobi Optimizer version 11.0.3 build v11.0.3rc0 (linux64 - "Ubuntu 20.04.6 LTS")

CPU model: AMD EPYC 7532 32-Core Processor, instruction set [SSE2|AVX|AVX2]
Thread count: 64 physical cores, 128 logical processors, using up to 4 threads

Optimize a model with 61503 rows, 30061 columns and 1734438 nonzeros
Model fingerprint: 0x22ee069b
Model has 2400 quadratic constraints
Variable types: 27511 continuous, 2550 integer (2550 binary)
Coefficient statistics:
  Matrix range     [3e-04, 1e+05]
  QMatrix range    [2e-03, 8e-03]
  QLMatrix range   [2e-02, 6e+01]
  Objective range  [1e+00, 1e+00]
  Bounds range     [1e+00, 1e+00]
  RHS range        [1e+00, 1e+05]
Presolve removed 50600 rows and 12697 columns
Presolve time: 0.50s
Presolved: 10903 rows, 17364 columns, 67583 nonzeros
Presolved model has 2400 quadratic constraint(s)
Variable types: 14829 continuous, 2535 integer (2535 binary)

Root relaxation: objective 4.868029e+04, 8318 iterations, 0.25 seconds (0.37 work units)

    Nodes    |    Current Node    |     Objective Bounds      |     Work
 Expl Unexpl |  Obj  Depth IntInf | Incumbent    BestBd   Gap | It/Node Time

     0     0 48680.2851    0   16          - 48680.2851      -     -    0s
     0     0 340367.571    0  754          - 340367.571      -     -    1s
     0     0 354513.212    0  811          - 354513.212      -     -    1s
     0     0 622042.993    0  747          - 622042.993      -     -    2s
     0     0 622244.091    0  507          - 622244.091      -     -    2s
     0     0 622536.050    0  378          - 622536.050      -     -    2s
     0     0 622539.303    0  378          - 622539.303      -     -    2s
     0     0 622542.467    0  359          - 622542.467      -     -    2s
     0     0 622542.656    0  359          - 622542.656      -     -    2s
     0     2 622542.829    0  359          - 622542.829      -     -    4s
    23    28 622552.142    7  347          - 622546.144      -  72.9    5s
H  455   419                    622635.49476 622548.299  0.01%  31.6    6s
*  455   419             176    622635.49476 622548.299  0.01%  31.6    6s

Cutting planes:
  Gomory: 7
  Implied bound: 482
  MIR: 156
  Flow cover: 202
  RLT: 5

Explored 605 nodes (42029 simplex iterations) in 7.30 seconds (9.31 work units)
Thread count was 4 (of 128 available processors)

Solution count 2: 622635 622635 

Optimal solution found (tolerance 1.00e-03)
Warning: max constraint violation (5.4926e-07) exceeds tolerance
Best objective 6.226354947693e+05, best bound 6.225482989820e+05, gap 0.0140%
